c description: Total graph ordering principle (compact representation) on 
c generator: CNFgen (0.9.0)
c copyright: (C) 2012-2020 Massimo Lauria <massimo.lauria@uniroma1.it>
c url: https://massimolauria.net/cnfgen
c
p cnf 28 119
-1 -2 -3 -4 -6 -7 0
1 -8 -9 -12 -13 0
2 8 -14 -15 -18 0
3 9 14 -21 0
4 15 -25 0
-27 0
6 12 21 0
1 8 -2 0
-1 -8 2 0
1 9 -3 0
-1 -9 3 0
1 10 -4 0
-1 -10 4 0
1 11 -5 0
-1 -11 5 0
1 12 -6 0
-1 -12 6 0
1 13 -7 0
-1 -13 7 0
2 14 -3 0
-2 -14 3 0
2 15 -4 0
-2 -15 4 0
2 16 -5 0
-2 -16 5 0
2 17 -6 0
-2 -17 6 0
2 18 -7 0
-2 -18 7 0
3 19 -4 0
-3 -19 4 0
3 20 -5 0
-3 -20 5 0
3 21 -6 0
-3 -21 6 0
3 22 -7 0
-3 -22 7 0
4 23 -5 0
-4 -23 5 0
4 24 -6 0
-4 -24 6 0
4 25 -7 0
-4 -25 7 0
5 26 -6 0
-5 -26 6 0
5 27 -7 0
-5 -27 7 0
6 28 -7 0
-6 -28 7 0
8 14 -9 0
-8 -14 9 0
8 15 -10 0
-8 -15 10 0
8 16 -11 0
-8 -16 11 0
8 17 -12 0
-8 -17 12 0
8 18 -13 0
-8 -18 13 0
9 19 -10 0
-9 -19 10 0
9 20 -11 0
-9 -20 11 0
9 21 -12 0
-9 -21 12 0
9 22 -13 0
-9 -22 13 0
10 23 -11 0
-10 -23 11 0
10 24 -12 0
-10 -24 12 0
10 25 -13 0
-10 -25 13 0
11 26 -12 0
-11 -26 12 0
11 27 -13 0
-11 -27 13 0
12 28 -13 0
-12 -28 13 0
14 19 -15 0
-14 -19 15 0
14 20 -16 0
-14 -20 16 0
14 21 -17 0
-14 -21 17 0
14 22 -18 0
-14 -22 18 0
15 23 -16 0
-15 -23 16 0
15 24 -17 0
-15 -24 17 0
15 25 -18 0
-15 -25 18 0
16 26 -17 0
-16 -26 17 0
16 27 -18 0
-16 -27 18 0
17 28 -18 0
-17 -28 18 0
19 23 -20 0
-19 -23 20 0
19 24 -21 0
-19 -24 21 0
19 25 -22 0
-19 -25 22 0
20 26 -21 0
-20 -26 21 0
20 27 -22 0
-20 -27 22 0
21 28 -22 0
-21 -28 22 0
23 26 -24 0
-23 -26 24 0
23 27 -25 0
-23 -27 25 0
24 28 -25 0
-24 -28 25 0
26 28 -27 0
-26 -28 27 0